; aiohttp :: corpus-study/repo_src/aiohttp/docs/code/client_middleware_cookbook.py :: LOCK 'TokenRefreshExpiryMiddleware.lock' :: naive encoding (verdict: unsat)
; Generated by snf-pipeline (encoder.py) -- run with any
; SMT-LIB2-compliant solver, e.g. `z3 aiohttp__corpus-study_repo_src_aiohttp_docs_code_client_middleware_cookbook.py__TokenRefreshExpiryMiddleware.lock__naive.smt2`
; benchmark generated from python API
(set-info :status unknown)
(assert
 false)
(check-sat)
